unsat
((set-logic NIA)
(declare-fun p!5 () Int)
(declare-fun s!0 () Int)
(declare-fun r!1 () Int)
(declare-fun q!3 () Int)
(declare-fun a!4 () Int)
(declare-fun b!2 () Int)
(proof
(let ((?x409 (* q!3 r!1)))
 (let ((?x41 (* q00 r00)))
 (let ((?x429 (* (- 1) ?x41)))
 (let ((?x37 (* p00 s00)))
 (let ((?x569 (+ ?x37 ?x429 ?x409 (* (- 1) (* s!0 p!5)))))
 (let (($x497 (>= ?x569 0)))
 (let (($x568 (= ?x569 0)))
 (let ((?x552 (* (- 1) p!5)))
 (let ((?x671 (+ q!3 ?x552)))
 (let ((?x279 (+ (* (- 1) a!4) b!2)))
 (let ((?x750 (* (- 1) r!1)))
 (let ((?x521 (+ s!0 ?x750)))
 (let ((?x1127 (* ?x521 ?x521 ?x521 ?x279 ?x279 ?x279 ?x671 ?x671 ?x671 r!1 r!1 a!4 p!5 p!5 p00 s00)))
 (let ((?x1118 (* ?x521 ?x521 ?x521 ?x279 ?x279 ?x279 ?x671 ?x671 ?x671 r!1 r!1 a!4 p!5 p!5 q!3 r!1)))
 (let ((?x677 (* ?x521 ?x521 ?x521 ?x279 ?x279 ?x279 ?x671 ?x671 ?x671 r!1 r!1 a!4 p!5 p!5 q00 r00)))
 (let ((?x675 (* ?x521 ?x521 ?x521 ?x279 ?x279 ?x279 ?x671 ?x671 ?x671 r!1 r!1 a!4 p!5 p!5 p!5 s!0)))
 (let ((?x523 (+ (* q00 r00 a!4 p!5 r!1) ?x675 ?x677 (* (- 1) (* p00 s00 a!4 p!5 r!1)) (* a!4 s!0 p!5 p!5 r!1) (* (- 1) (* a!4 q!3 p!5 r!1 r!1)) (* (- 1) ?x1118) (* (- 1) ?x1127))))
 (let (($x147 (= ?x523 0)))
 (let ((?x736 (* (- 1) (* a!4 q!3 r!1))))
 (let ((?x518 (* b!2 b!2 b!2 b!2 s!0 s!0 s!0 q!3 q!3 q!3 p!5 p!5 r!1 r!1)))
 (let ((?x512 (* b!2 b!2 b!2 b!2 s!0 s!0 s!0 s!0 s!0 q!3 q!3 q!3 q!3 p!5)))
 (let ((?x300 (* a!4 b!2 b!2 b!2 s!0 s!0 s!0 q!3 q!3 q!3 q!3 p!5 r!1 r!1)))
 (let ((?x283 (* a!4 b!2 b!2 b!2 s!0 s!0 s!0 q!3 q!3 q!3 q!3 q!3 r!1 r!1)))
 (let ((?x268 (* b!2 b!2 b!2 b!2 s!0 s!0 s!0 q!3 q!3 q!3 q!3 p!5 r!1 r!1)))
 (let ((?x249 (* a!4 b!2 b!2 b!2 s!0 s!0 s!0 s!0 s!0 q!3 q!3 q!3 q!3 p!5)))
 (let ((?x248 (* b!2 b!2 b!2 b!2 s!0 s!0 s!0 s!0 s!0 q!3 q!3 q!3 p!5 p!5)))
 (let ((?x227 (* a!4 b!2 b!2 b!2 s!0 s!0 s!0 s!0 s!0 q!3 q!3 q!3 p!5 p!5)))
 (let ((?x220 (* b!2 b!2 b!2 b!2 s!0 s!0 s!0 s!0 q!3 q!3 q!3 q!3 q!3 r!1)))
 (let ((?x214 (* a!4 b!2 b!2 b!2 s!0 s!0 s!0 s!0 q!3 q!3 q!3 q!3 q!3 r!1)))
 (let ((?x208 (* b!2 b!2 b!2 b!2 s!0 s!0 s!0 s!0 q!3 q!3 q!3 q!3 p!5 r!1)))
 (let ((?x200 (* a!4 b!2 b!2 b!2 s!0 s!0 s!0 s!0 q!3 q!3 q!3 q!3 p!5 r!1)))
 (let ((?x197 (* b!2 b!2 b!2 b!2 s!0 s!0 s!0 s!0 q!3 q!3 q!3 p!5 p!5 r!1)))
 (let ((?x196 (* a!4 b!2 b!2 b!2 s!0 s!0 s!0 s!0 q!3 q!3 q!3 p!5 p!5 r!1)))
 (let ((?x195 (* b!2 b!2 b!2 b!2 s!0 s!0 s!0 q!3 q!3 q!3 q!3 q!3 r!1 r!1)))
 (let ((?x169 (* b!2 b!2 b!2 b!2 s!0 s!0 s!0 s!0 s!0 q!3 q!3 q!3 q!3 q!3)))
 (let ((?x146 (* a!4 b!2 b!2 b!2 s!0 s!0 s!0 q!3 q!3 q!3 p!5 p!5 r!1 r!1)))
 (let ((?x136 (* a!4 b!2 b!2 b!2 s!0 s!0 s!0 s!0 s!0 q!3 q!3 q!3 q!3 q!3)))
 (let ((?x183 (+ ?x136 (* (- 1) (* b!2 s!0 q!3)) ?x146 (* (- 1) ?x169) (* (- 1) ?x195) (* (- 2) ?x196) (* 2 ?x197) (* 4 ?x200) (* (- 4) ?x208) (* (- 2) ?x214) (* 2 ?x220) ?x227 (* (- 1) ?x248) (* (- 2) ?x249) (* 2 ?x268) (* a!4 p!5 r!1) ?x283 (* (- 2) ?x300) (* 2 ?x512) (* (- 1) ?x518) (* (- 1) (* a!4 s!0 p!5)) (* b!2 s!0 p!5) (* a!4 s!0 q!3) ?x736 (* (- 1) (* b!2 p!5 r!1)) (* b!2 q!3 r!1))))
 (let ((?x184 (* ?x183 (+ (* (- 1) ?x37) ?x41 (* (- 1) ?x409) (* s!0 p!5)))))
 (let (($x522 (= ?x184 0)))
 (let (($x164 (not $x522)))
 (let (($x679 (or $x164 (not $x147))))
 (let ((?x423 (+ (* r00 b00 q!3) (* q00 a00 s!0) (* (- 1) (* s00 a00 q!3)) (* (- 1) (* p00 b00 s!0)) (* (- 1) (* q00 r00 b!2)) (* p00 s00 b!2))))
 (let ((?x636 (+ (* q00 a00 r!1) (* r00 b00 p!5) (* (- 1) (* q00 r00 a!4)) (* p00 s00 a!4) (* (- 1) (* p00 b00 r!1)) (* (- 1) (* s00 a00 p!5)))))
 (let ((?x134 (* q00 a00)))
 (let ((?x232 (+ ?x134 (* (- 1) (* p00 b00)) (* b!2 p!5) (* (- 1) (* a!4 q!3)))))
 (let ((?x138 (* b!2 r!1)))
 (let ((?x130 (* s00 a00)))
 (let (($x419 (= (+ ?x130 ?x138 (* (- 1) (* r00 b00)) (* (- 1) (* a!4 s!0))) 0)))
 (let (($x708 (and $x568 $x419 (= ?x232 0) (= ?x636 0) (= ?x423 0) $x679)))
 (let ((?x411 (* (- 1) ?x409)))
 (let ((?x139 (* (- 1) ?x37)))
 (let ((?x191 (+ (* p!5 s!0) ?x139 ?x41 ?x411)))
 (let ((?x417 (* q!3 q!3 q!3 q!3 q!3 b!2 b!2 b!2 b!2 s!0 s!0 s!0 s!0 s!0)))
 (let ((?x173 (* a!4 q!3 q!3 q!3 q!3 q!3 b!2 b!2 b!2 s!0 s!0 s!0 s!0 s!0)))
 (let ((?x165 (* p!5 q!3 q!3 q!3 q!3 b!2 b!2 b!2 b!2 s!0 s!0 s!0 s!0 s!0)))
 (let ((?x128 (* p!5 a!4 q!3 q!3 q!3 q!3 b!2 b!2 b!2 s!0 s!0 s!0 s!0 s!0)))
 (let ((?x251 (* p!5 p!5 q!3 q!3 q!3 b!2 b!2 b!2 b!2 s!0 s!0 s!0 s!0 s!0)))
 (let ((?x250 (* p!5 p!5 a!4 q!3 q!3 q!3 b!2 b!2 b!2 s!0 s!0 s!0 s!0 s!0)))
 (let ((?x224 (* q!3 q!3 q!3 q!3 q!3 b!2 b!2 b!2 b!2 r!1 s!0 s!0 s!0 s!0)))
 (let ((?x217 (* a!4 q!3 q!3 q!3 q!3 q!3 b!2 b!2 b!2 r!1 s!0 s!0 s!0 s!0)))
 (let ((?x705 (* p!5 q!3 q!3 q!3 q!3 b!2 b!2 b!2 b!2 r!1 s!0 s!0 s!0 s!0)))
 (let ((?x426 (* p!5 a!4 q!3 q!3 q!3 q!3 b!2 b!2 b!2 r!1 s!0 s!0 s!0 s!0)))
 (let ((?x897 (* p!5 p!5 q!3 q!3 q!3 b!2 b!2 b!2 b!2 r!1 s!0 s!0 s!0 s!0)))
 (let ((?x1119 (* p!5 p!5 a!4 q!3 q!3 q!3 b!2 b!2 b!2 r!1 s!0 s!0 s!0 s!0)))
 (let ((?x1129 (* q!3 q!3 q!3 q!3 q!3 b!2 b!2 b!2 b!2 r!1 r!1 s!0 s!0 s!0)))
 (let ((?x1128 (* a!4 q!3 q!3 q!3 q!3 q!3 b!2 b!2 b!2 r!1 r!1 s!0 s!0 s!0)))
 (let ((?x441 (* p!5 q!3 q!3 q!3 q!3 b!2 b!2 b!2 b!2 r!1 r!1 s!0 s!0 s!0)))
 (let ((?x1138 (* p!5 a!4 q!3 q!3 q!3 q!3 b!2 b!2 b!2 r!1 r!1 s!0 s!0 s!0)))
 (let ((?x1143 (* p!5 p!5 q!3 q!3 q!3 b!2 b!2 b!2 b!2 r!1 r!1 s!0 s!0 s!0)))
 (let ((?x980 (* p!5 p!5 a!4 q!3 q!3 q!3 b!2 b!2 b!2 r!1 r!1 s!0 s!0 s!0)))
 (let ((?x369 (+ (* p!5 a!4 r!1) (* (- 1) (* p!5 b!2 r!1)) ?x736 (* q!3 b!2 r!1) (* (- 1) (* p!5 a!4 s!0)) (* p!5 b!2 s!0) (* a!4 q!3 s!0) (* (- 1) (* q!3 b!2 s!0)) ?x980 (* (- 1) ?x1143) (* (- 2) ?x1138) (* 2 ?x441) ?x1128 (* (- 1) ?x1129) (* (- 2) ?x1119) (* 2 ?x897) (* 4 ?x426) (* (- 4) ?x705) (* (- 2) ?x217) (* 2 ?x224) ?x250 (* (- 1) ?x251) (* (- 2) ?x128) (* 2 ?x165) ?x173 (* (- 1) ?x417))))
 (let ((?x407 (+ ?x552 q!3)))
 (let ((?x554 (+ ?x750 s!0)))
 (let ((?x348 (* ?x554 ?x554 ?x554 ?x279 ?x279 ?x279 ?x407 ?x407 ?x407 r!1 r!1 a!4 p!5 p!5 q!3 r!1)))
 (let ((?x350 (* ?x554 ?x554 ?x554 ?x279 ?x279 ?x279 ?x407 ?x407 ?x407 r!1 r!1 a!4 p!5 p!5 p00 s00)))
 (let ((?x352 (* ?x554 ?x554 ?x554 ?x279 ?x279 ?x279 ?x407 ?x407 ?x407 r!1 r!1 a!4 p!5 p!5 p!5 s!0)))
 (let ((?x353 (* ?x554 ?x554 ?x554 ?x279 ?x279 ?x279 ?x407 ?x407 ?x407 r!1 r!1 a!4 p!5 p!5 q00 r00)))
 (let ((?x302 (+ ?x353 ?x352 (* (- 1) ?x350) (* (- 1) ?x348) (* (- 1) (* p!5 a!4 q!3 r!1 r!1)) (* p!5 a!4 r!1 q00 r00) (* (- 1) (* p!5 a!4 r!1 p00 s00)) (* p!5 p!5 a!4 r!1 s!0))))
 (let ((?x732 (+ (* b!2 q00 r00) (* (- 1) (* b!2 p00 s00)) (* s!0 p00 b00) (* (- 1) (* q!3 r00 b00)) (* q!3 s00 a00) (* (- 1) (* s!0 q00 a00)))))
 (let ((?x151 (+ (* a!4 p00 s00) (* (- 1) (* a!4 q00 r00)) (* p!5 r00 b00) (* (- 1) (* r!1 p00 b00)) (* (- 1) (* p!5 s00 a00)) (* r!1 q00 a00))))
 (let ((?x135 (* p00 b00)))
 (let ((?x178 (* (- 1) ?x134)))
 (let ((?x545 (* a!4 q!3)))
 (let (($x469 (= (+ (* a!4 s!0) (* (- 1) ?x138) (* (- 1) ?x130) (* r00 b00)) 0)))
 (let (($x599 (and (= ?x191 0) $x469 (= (+ ?x545 ?x178 ?x135 (* (- 1) (* p!5 b!2))) 0) (= ?x151 0) (= ?x732 0) (or (not (= ?x302 0)) (not (= (* ?x369 ?x191) 0))))))
 (let (($x380 (exists ((p Int) (a Int) (q Int) (b Int) (r Int) (s Int) )(! (let ((?x123 (* (- 1) (* q r))))
 (let ((?x41 (* q00 r00)))
 (let ((?x37 (* p00 s00)))
 (let ((?x139 (* (- 1) ?x37)))
 (let ((?x33 (* p s)))
 (let ((?x153 (+ ?x33 ?x139 ?x41 ?x123)))
 (let ((?x681 (* q q q q q b b b b s s s s s)))
 (let ((?x672 (* a q q q q q b b b s s s s s)))
 (let ((?x649 (* p q q q q b b b b s s s s s)))
 (let ((?x640 (* p a q q q q b b b s s s s s)))
 (let ((?x630 (* p p q q q b b b b s s s s s)))
 (let ((?x621 (* p p a q q q b b b s s s s s)))
 (let ((?x553 (* q q q q q b b b b r s s s s)))
 (let ((?x544 (* a q q q q q b b b r s s s s)))
 (let ((?x519 (* p q q q q b b b b r s s s s)))
 (let ((?x510 (* p a q q q q b b b r s s s s)))
 (let ((?x502 (* p p q q q b b b b r s s s s)))
 (let ((?x493 (* p p a q q q b b b r s s s s)))
 (let ((?x483 (* q q q q q b b b b r r s s s)))
 (let ((?x474 (* a q q q q q b b b r r s s s)))
 (let ((?x451 (* p q q q q b b b b r r s s s)))
 (let ((?x442 (* p a q q q q b b b r r s s s)))
 (let ((?x434 (* p p q q q b b b b r r s s s)))
 (let ((?x431 (* p p a q q q b b b r r s s s)))
 (let ((?x714 (+ (* p a r) (* (- 1) (* p b r)) (* (- 1) (* a q r)) (* q b r) (* (- 1) (* p a s)) (* p b s) (* a q s) (* (- 1) (* q b s)) ?x431 (* (- 1) ?x434) (* (- 2) ?x442) (* 2 ?x451) ?x474 (* (- 1) ?x483) (* (- 2) ?x493) (* 2 ?x502) (* 4 ?x510) (* (- 4) ?x519) (* (- 2) ?x544) (* 2 ?x553) ?x621 (* (- 1) ?x630) (* (- 2) ?x640) (* 2 ?x649) ?x672 (* (- 1) ?x681))))
 (let ((?x876 (* p p a r s)))
 (let ((?x869 (* p a r q00 r00)))
 (let ((?x344 (* (- 1) p)))
 (let ((?x357 (+ ?x344 q)))
 (let ((?x745 (* (- 1) a)))
 (let ((?x749 (+ ?x745 b)))
 (let ((?x260 (* (- 1) r)))
 (let ((?x272 (+ ?x260 s)))
 (let ((?x731 (* ?x272 ?x272 ?x272 ?x749 ?x749 ?x749 ?x357 ?x357 ?x357 r r a p p q r)))
 (let ((?x273 (* ?x272 ?x272 ?x272 ?x749 ?x749 ?x749 ?x357 ?x357 ?x357 r r a p p p00 s00)))
 (let ((?x267 (* ?x272 ?x272 ?x272 ?x749 ?x749 ?x749 ?x357 ?x357 ?x357 r r a p p p s)))
 (let ((?x154 (* ?x272 ?x272 ?x272 ?x749 ?x749 ?x749 ?x357 ?x357 ?x357 r r a p p q00 r00)))
 (let ((?x351 (+ ?x154 ?x267 (* (- 1) ?x273) (* (- 1) ?x731) (* (- 1) (* p a q r r)) ?x869 (* (- 1) (* p a r p00 s00)) ?x876)))
 (let ((?x72 (* b q00 r00)))
 (let ((?x310 (+ ?x72 (* (- 1) (* b p00 s00)) (* s p00 b00) (* (- 1) (* q r00 b00)) (* q s00 a00) (* (- 1) (* s q00 a00)))))
 (let (($x315 (= ?x310 0)))
 (let ((?x63 (* a p00 s00)))
 (let ((?x246 (+ ?x63 (* (- 1) (* a q00 r00)) (* p r00 b00) (* (- 1) (* r p00 b00)) (* (- 1) (* p s00 a00)) (* r q00 a00))))
 (let (($x247 (= ?x246 0)))
 (let ((?x135 (* p00 b00)))
 (let ((?x134 (* q00 a00)))
 (let ((?x178 (* (- 1) ?x134)))
 (let (($x181 (= (+ (* a q) ?x178 ?x135 (* (- 1) (* p b))) 0)))
 (let ((?x148 (* r00 b00)))
 (let ((?x130 (* s00 a00)))
 (let ((?x137 (* (- 1) ?x130)))
 (let ((?x49 (* a s)))
 (let (($x163 (= (+ ?x49 (* (- 1) (* b r)) ?x137 ?x148) 0)))
 (let (($x158 (= ?x153 0)))
 (and $x158 $x163 $x181 $x247 $x315 (or (not (= ?x351 0)) (not (= (* ?x714 ?x153) 0)))))))))))))))))))))))))))))))))))))))))))))))))))))))))) :qid k!39))
 ))
 (let (($x433 (exists ((p Int) (a Int) (q Int) (b Int) (r Int) (s Int) )(! (let ((?x41 (* q00 r00)))
 (let ((?x37 (* p00 s00)))
 (let ((?x139 (* (- 1) ?x37)))
 (let ((?x661 (+ (* (- 1) (* (+ r (* (- 1) s)) q)) (* (+ p (* (- 1) q)) s) ?x139 ?x41)))
 (let ((?x885 (+ p (* (- 1) q))))
 (let ((?x564 (+ a (* (- 1) b))))
 (let ((?x256 (* (- 1) s)))
 (let ((?x305 (+ r ?x256)))
 (let ((?x528 (* ?x305 ?x305 ?x564 ?x885 ?x885 s s s b b b q q q)))
 (let ((?x385 (+ (* (- 1) (* (+ q (* (- 1) p)) r)) (* (+ s (* (- 1) r)) p) ?x139 ?x41)))
 (let ((?x344 (* (- 1) p)))
 (let ((?x439 (+ q ?x344)))
 (let ((?x745 (* (- 1) a)))
 (let ((?x432 (+ b ?x745)))
 (let ((?x260 (* (- 1) r)))
 (let ((?x717 (+ s ?x260)))
 (let ((?x389 (* ?x717 ?x717 ?x717 ?x432 ?x432 ?x432 ?x439 ?x439 ?x439 r r a p p)))
 (let (($x328 (or (not (= (* (+ (* r a p) ?x389) ?x385) 0)) (not (= (* (+ (* ?x305 ?x564 ?x885) ?x528) ?x661) 0)))))
 (let ((?x73 (* b00 p00 s)))
 (let ((?x604 (+ (* q00 r00 b) ?x73 (* (- 1) (* b00 r00 q)) (* (- 1) (* p00 s00 b)) (* a00 s00 q) (* (- 1) (* a00 q00 s)))))
 (let (($x141 (= ?x604 0)))
 (let ((?x69 (* a00 q00 r)))
 (let ((?x662 (* p00 s00 a)))
 (let ((?x591 (* b00 r00 p)))
 (let ((?x985 (+ ?x591 ?x662 (* (- 1) (* b00 p00 r)) (* (- 1) (* q00 r00 a)) (* (- 1) (* a00 s00 p)) ?x69)))
 (let ((?x57 (* b00 p00)))
 (let ((?x322 (* q a)))
 (let (($x320 (= (+ ?x322 (* (- 1) (* a00 q00)) ?x57 (* (- 1) (* b p))) 0)))
 (let ((?x47 (* a00 s00)))
 (let ((?x314 (* r b)))
 (let (($x754 (= (+ ?x314 ?x47 (* (- 1) (* s a)) (* (- 1) (* b00 r00))) 0)))
 (let (($x398 (= (+ (* r q) (* (- 1) (* s p)) ?x37 (* (- 1) ?x41)) 0)))
 (and $x398 $x754 $x320 (= ?x985 0) $x141 $x328))))))))))))))))))))))))))))))))) :qid k!39))
 ))
 (let ((?x473 (lambda ((p Int) (a Int) (q Int) (b Int) (r Int) (s Int) )(let ((?x123 (* (- 1) (* q r))))
 (let ((?x41 (* q00 r00)))
 (let ((?x37 (* p00 s00)))
 (let ((?x139 (* (- 1) ?x37)))
 (let ((?x33 (* p s)))
 (let ((?x153 (+ ?x33 ?x139 ?x41 ?x123)))
 (let ((?x681 (* q q q q q b b b b s s s s s)))
 (let ((?x672 (* a q q q q q b b b s s s s s)))
 (let ((?x649 (* p q q q q b b b b s s s s s)))
 (let ((?x640 (* p a q q q q b b b s s s s s)))
 (let ((?x630 (* p p q q q b b b b s s s s s)))
 (let ((?x621 (* p p a q q q b b b s s s s s)))
 (let ((?x553 (* q q q q q b b b b r s s s s)))
 (let ((?x544 (* a q q q q q b b b r s s s s)))
 (let ((?x519 (* p q q q q b b b b r s s s s)))
 (let ((?x510 (* p a q q q q b b b r s s s s)))
 (let ((?x502 (* p p q q q b b b b r s s s s)))
 (let ((?x493 (* p p a q q q b b b r s s s s)))
 (let ((?x483 (* q q q q q b b b b r r s s s)))
 (let ((?x474 (* a q q q q q b b b r r s s s)))
 (let ((?x451 (* p q q q q b b b b r r s s s)))
 (let ((?x442 (* p a q q q q b b b r r s s s)))
 (let ((?x434 (* p p q q q b b b b r r s s s)))
 (let ((?x431 (* p p a q q q b b b r r s s s)))
 (let ((?x714 (+ (* p a r) (* (- 1) (* p b r)) (* (- 1) (* a q r)) (* q b r) (* (- 1) (* p a s)) (* p b s) (* a q s) (* (- 1) (* q b s)) ?x431 (* (- 1) ?x434) (* (- 2) ?x442) (* 2 ?x451) ?x474 (* (- 1) ?x483) (* (- 2) ?x493) (* 2 ?x502) (* 4 ?x510) (* (- 4) ?x519) (* (- 2) ?x544) (* 2 ?x553) ?x621 (* (- 1) ?x630) (* (- 2) ?x640) (* 2 ?x649) ?x672 (* (- 1) ?x681))))
 (let ((?x876 (* p p a r s)))
 (let ((?x869 (* p a r q00 r00)))
 (let ((?x344 (* (- 1) p)))
 (let ((?x357 (+ ?x344 q)))
 (let ((?x745 (* (- 1) a)))
 (let ((?x749 (+ ?x745 b)))
 (let ((?x260 (* (- 1) r)))
 (let ((?x272 (+ ?x260 s)))
 (let ((?x731 (* ?x272 ?x272 ?x272 ?x749 ?x749 ?x749 ?x357 ?x357 ?x357 r r a p p q r)))
 (let ((?x273 (* ?x272 ?x272 ?x272 ?x749 ?x749 ?x749 ?x357 ?x357 ?x357 r r a p p p00 s00)))
 (let ((?x267 (* ?x272 ?x272 ?x272 ?x749 ?x749 ?x749 ?x357 ?x357 ?x357 r r a p p p s)))
 (let ((?x154 (* ?x272 ?x272 ?x272 ?x749 ?x749 ?x749 ?x357 ?x357 ?x357 r r a p p q00 r00)))
 (let ((?x351 (+ ?x154 ?x267 (* (- 1) ?x273) (* (- 1) ?x731) (* (- 1) (* p a q r r)) ?x869 (* (- 1) (* p a r p00 s00)) ?x876)))
 (let ((?x72 (* b q00 r00)))
 (let ((?x310 (+ ?x72 (* (- 1) (* b p00 s00)) (* s p00 b00) (* (- 1) (* q r00 b00)) (* q s00 a00) (* (- 1) (* s q00 a00)))))
 (let (($x315 (= ?x310 0)))
 (let ((?x63 (* a p00 s00)))
 (let ((?x246 (+ ?x63 (* (- 1) (* a q00 r00)) (* p r00 b00) (* (- 1) (* r p00 b00)) (* (- 1) (* p s00 a00)) (* r q00 a00))))
 (let (($x247 (= ?x246 0)))
 (let ((?x135 (* p00 b00)))
 (let ((?x134 (* q00 a00)))
 (let ((?x178 (* (- 1) ?x134)))
 (let (($x181 (= (+ (* a q) ?x178 ?x135 (* (- 1) (* p b))) 0)))
 (let ((?x148 (* r00 b00)))
 (let ((?x130 (* s00 a00)))
 (let ((?x137 (* (- 1) ?x130)))
 (let ((?x49 (* a s)))
 (let (($x163 (= (+ ?x49 (* (- 1) (* b r)) ?x137 ?x148) 0)))
 (let (($x158 (= ?x153 0)))
 (let (($x1087 (and $x158 $x163 $x181 $x247 $x315 (or (not (= ?x351 0)) (not (= (* ?x714 ?x153) 0))))))
 (let ((?x661 (+ (* (- 1) (* (+ r (* (- 1) s)) q)) (* (+ p (* (- 1) q)) s) ?x139 ?x41)))
 (let ((?x885 (+ p (* (- 1) q))))
 (let ((?x564 (+ a (* (- 1) b))))
 (let ((?x256 (* (- 1) s)))
 (let ((?x305 (+ r ?x256)))
 (let ((?x528 (* ?x305 ?x305 ?x564 ?x885 ?x885 s s s b b b q q q)))
 (let ((?x385 (+ (* (- 1) (* (+ q ?x344) r)) (* (+ s ?x260) p) ?x139 ?x41)))
 (let ((?x439 (+ q ?x344)))
 (let ((?x432 (+ b ?x745)))
 (let ((?x717 (+ s ?x260)))
 (let ((?x389 (* ?x717 ?x717 ?x717 ?x432 ?x432 ?x432 ?x439 ?x439 ?x439 r r a p p)))
 (let (($x328 (or (not (= (* (+ (* r a p) ?x389) ?x385) 0)) (not (= (* (+ (* ?x305 ?x564 ?x885) ?x528) ?x661) 0)))))
 (let ((?x73 (* b00 p00 s)))
 (let ((?x604 (+ (* q00 r00 b) ?x73 (* (- 1) (* b00 r00 q)) (* (- 1) (* p00 s00 b)) (* a00 s00 q) (* (- 1) (* a00 q00 s)))))
 (let (($x141 (= ?x604 0)))
 (let ((?x69 (* a00 q00 r)))
 (let ((?x662 (* p00 s00 a)))
 (let ((?x591 (* b00 r00 p)))
 (let ((?x985 (+ ?x591 ?x662 (* (- 1) (* b00 p00 r)) (* (- 1) (* q00 r00 a)) (* (- 1) (* a00 s00 p)) ?x69)))
 (let ((?x57 (* b00 p00)))
 (let ((?x322 (* q a)))
 (let (($x320 (= (+ ?x322 (* (- 1) (* a00 q00)) ?x57 (* (- 1) (* b p))) 0)))
 (let ((?x47 (* a00 s00)))
 (let ((?x314 (* r b)))
 (let (($x754 (= (+ ?x314 ?x47 (* (- 1) (* s a)) (* (- 1) (* b00 r00))) 0)))
 (let (($x398 (= (+ (* r q) (* (- 1) (* s p)) ?x37 (* (- 1) ?x41)) 0)))
 (let (($x874 (and $x398 $x754 $x320 (= ?x985 0) $x141 $x328)))
 (rewrite (= $x874 $x1087)))))))))))))))))))))))))))))))))))))))))))))))))))))))))))))))))))))))))))))))))))))
 ))
 (let (($x1142 (exists ((p Int) (a Int) (q Int) (b Int) (r Int) (s Int) )(! (let ((?x41 (* q00 r00)))
 (let ((?x37 (* p00 s00)))
 (let ((?x139 (* (- 1) ?x37)))
 (let ((?x661 (+ (* (- 1) (* (+ r (* (- 1) s)) q)) (* (+ p (* (- 1) q)) s) ?x139 ?x41)))
 (let ((?x885 (+ p (* (- 1) q))))
 (let ((?x564 (+ a (* (- 1) b))))
 (let ((?x256 (* (- 1) s)))
 (let ((?x305 (+ r ?x256)))
 (let ((?x528 (* ?x305 ?x305 ?x564 ?x885 ?x885 s s s b b b q q q)))
 (let ((?x385 (+ (* (- 1) (* (+ q (* (- 1) p)) r)) (* (+ s (* (- 1) r)) p) ?x139 ?x41)))
 (let ((?x344 (* (- 1) p)))
 (let ((?x439 (+ q ?x344)))
 (let ((?x745 (* (- 1) a)))
 (let ((?x432 (+ b ?x745)))
 (let ((?x260 (* (- 1) r)))
 (let ((?x717 (+ s ?x260)))
 (let ((?x389 (* ?x717 ?x717 ?x717 ?x432 ?x432 ?x432 ?x439 ?x439 ?x439 r r a p p)))
 (let (($x328 (or (not (= (* (+ (* r a p) ?x389) ?x385) 0)) (not (= (* (+ (* ?x305 ?x564 ?x885) ?x528) ?x661) 0)))))
 (let ((?x73 (* b00 p00 s)))
 (let ((?x604 (+ (* q00 r00 b) ?x73 (* (- 1) (* b00 r00 q)) (* (- 1) (* p00 s00 b)) (* a00 s00 q) (* (- 1) (* a00 q00 s)))))
 (let (($x141 (= ?x604 0)))
 (let ((?x888 (* a00 s00 p)))
 (let ((?x859 (* q00 r00 a)))
 (let ((?x65 (* b00 p00 r)))
 (let ((?x1154 (+ (* (- 1) (* b00 r00 p)) (* (- 1) (* p00 s00 a)) ?x65 ?x859 ?x888 (* (- 1) (* a00 q00 r)))))
 (let ((?x59 (* b p)))
 (let ((?x55 (* a00 q00)))
 (let (($x864 (= (+ (* (- 1) (* q a)) ?x55 (* (- 1) (* b00 p00)) ?x59) 0)))
 (let ((?x51 (* b00 r00)))
 (let ((?x230 (* s a)))
 (let (($x892 (= (+ (* (- 1) (* r b)) (* (- 1) (* a00 s00)) ?x230 ?x51) 0)))
 (and (= (+ (* (- 1) (* r q)) (* s p) ?x139 ?x41) 0) $x892 $x864 (= ?x1154 0) $x141 $x328)))))))))))))))))))))))))))))))) :qid k!39))
 ))
 (let ((?x190 (lambda ((p Int) (a Int) (q Int) (b Int) (r Int) (s Int) )(let ((?x41 (* q00 r00)))
 (let ((?x37 (* p00 s00)))
 (let ((?x139 (* (- 1) ?x37)))
 (let ((?x661 (+ (* (- 1) (* (+ r (* (- 1) s)) q)) (* (+ p (* (- 1) q)) s) ?x139 ?x41)))
 (let ((?x885 (+ p (* (- 1) q))))
 (let ((?x564 (+ a (* (- 1) b))))
 (let ((?x256 (* (- 1) s)))
 (let ((?x305 (+ r ?x256)))
 (let ((?x528 (* ?x305 ?x305 ?x564 ?x885 ?x885 s s s b b b q q q)))
 (let ((?x385 (+ (* (- 1) (* (+ q (* (- 1) p)) r)) (* (+ s (* (- 1) r)) p) ?x139 ?x41)))
 (let ((?x344 (* (- 1) p)))
 (let ((?x439 (+ q ?x344)))
 (let ((?x745 (* (- 1) a)))
 (let ((?x432 (+ b ?x745)))
 (let ((?x260 (* (- 1) r)))
 (let ((?x717 (+ s ?x260)))
 (let ((?x389 (* ?x717 ?x717 ?x717 ?x432 ?x432 ?x432 ?x439 ?x439 ?x439 r r a p p)))
 (let (($x328 (or (not (= (* (+ (* r a p) ?x389) ?x385) 0)) (not (= (* (+ (* ?x305 ?x564 ?x885) ?x528) ?x661) 0)))))
 (let ((?x73 (* b00 p00 s)))
 (let ((?x604 (+ (* q00 r00 b) ?x73 (* (- 1) (* b00 r00 q)) (* (- 1) (* p00 s00 b)) (* a00 s00 q) (* (- 1) (* a00 q00 s)))))
 (let (($x141 (= ?x604 0)))
 (let ((?x69 (* a00 q00 r)))
 (let ((?x662 (* p00 s00 a)))
 (let ((?x591 (* b00 r00 p)))
 (let ((?x985 (+ ?x591 ?x662 (* (- 1) (* b00 p00 r)) (* (- 1) (* q00 r00 a)) (* (- 1) (* a00 s00 p)) ?x69)))
 (let ((?x57 (* b00 p00)))
 (let ((?x322 (* q a)))
 (let (($x320 (= (+ ?x322 (* (- 1) (* a00 q00)) ?x57 (* (- 1) (* b p))) 0)))
 (let ((?x47 (* a00 s00)))
 (let ((?x314 (* r b)))
 (let (($x754 (= (+ ?x314 ?x47 (* (- 1) (* s a)) (* (- 1) (* b00 r00))) 0)))
 (let (($x398 (= (+ (* r q) (* (- 1) (* s p)) ?x37 (* (- 1) ?x41)) 0)))
 (let (($x874 (and $x398 $x754 $x320 (= ?x985 0) $x141 $x328)))
 (let ((?x888 (* a00 s00 p)))
 (let ((?x859 (* q00 r00 a)))
 (let ((?x65 (* b00 p00 r)))
 (let (($x1158 (= (+ (* (- 1) ?x591) (* (- 1) ?x662) ?x65 ?x859 ?x888 (* (- 1) ?x69)) 0)))
 (let (($x864 (= (+ (* (- 1) ?x322) (* a00 q00) (* (- 1) ?x57) (* b p)) 0)))
 (let (($x892 (= (+ (* (- 1) ?x314) (* (- 1) ?x47) (* s a) (* b00 r00)) 0)))
 (let (($x258 (and (= (+ (* (- 1) (* r q)) (* s p) ?x139 ?x41) 0) $x892 $x864 $x1158 $x141 $x328)))
 (rewrite (= $x258 $x874)))))))))))))))))))))))))))))))))))))))))))
 ))
 (let (($x114 (exists ((p Int) (a Int) (q Int) (b Int) (r Int) (s Int) )(! (let ((?x100 (- s r)))
 (let ((?x98 (- q p)))
 (let ((?x106 (- b a)))
 (let ((?x107 (* a ?x106 ?x106 ?x106 p p ?x98 ?x98 ?x98 r r ?x100 ?x100 ?x100)))
 (let ((?x41 (* q00 r00)))
 (let ((?x104 (+ (- (+ (* (- 1) ?x98 r) (* p ?x100)) (* p00 s00)) ?x41)))
 (let ((?x84 (- r s)))
 (let ((?x86 (- p q)))
 (let ((?x91 (- a b)))
 (let ((?x93 (* ?x91 b b b ?x86 ?x86 q q q ?x84 ?x84 s s s)))
 (let ((?x90 (+ (- (+ (* (- 1) q ?x84) (* ?x86 s)) (* p00 s00)) ?x41)))
 (let (($x112 (or (not (= (* ?x90 (+ (* ?x91 ?x86 ?x84) ?x93)) 0)) (not (= (* ?x104 (+ (* a p r) ?x107)) 0)))))
 (let ((?x81 (* a00 q00 s)))
 (let ((?x76 (* b p00 s00)))
 (let ((?x77 (- (+ (* b q00 r00) (* b00 p00 s)) (* b00 q r00))))
 (let ((?x69 (* a00 q00 r)))
 (let ((?x66 (* a q00 r00)))
 (let ((?x65 (* b00 p00 r)))
 (let ((?x68 (+ (- (* (- 1) b00 p r00) (* a p00 s00)) ?x65 ?x66 (* a00 p s00))))
 (let ((?x59 (* b p)))
 (let ((?x60 (+ (- (+ (* (- 1) a q) (* a00 q00)) (* b00 p00)) ?x59)))
 (let ((?x51 (* b00 r00)))
 (let ((?x49 (* a s)))
 (let (($x53 (= (+ (- (* (- 1) b r) (* a00 s00)) ?x49 ?x51) 0)))
 (let ((?x42 (+ (- (+ (* (- 1) q r) (* p s)) (* p00 s00)) ?x41)))
 (and (= ?x42 0) $x53 (= ?x60 0) (= (- ?x68 ?x69) 0) (= (- (+ (- ?x77 ?x76) (* a00 q s00)) ?x81) 0) $x112)))))))))))))))))))))))))) :qid k!39))
 ))
 (let ((?x986 (lambda ((p Int) (a Int) (q Int) (b Int) (r Int) (s Int) )(let ((?x41 (* q00 r00)))
 (let ((?x37 (* p00 s00)))
 (let ((?x139 (* (- 1) ?x37)))
 (let ((?x661 (+ (* (- 1) (* (+ r (* (- 1) s)) q)) (* (+ p (* (- 1) q)) s) ?x139 ?x41)))
 (let ((?x885 (+ p (* (- 1) q))))
 (let ((?x564 (+ a (* (- 1) b))))
 (let ((?x256 (* (- 1) s)))
 (let ((?x305 (+ r ?x256)))
 (let ((?x528 (* ?x305 ?x305 ?x564 ?x885 ?x885 s s s b b b q q q)))
 (let ((?x385 (+ (* (- 1) (* (+ q (* (- 1) p)) r)) (* (+ s (* (- 1) r)) p) ?x139 ?x41)))
 (let ((?x344 (* (- 1) p)))
 (let ((?x439 (+ q ?x344)))
 (let ((?x745 (* (- 1) a)))
 (let ((?x432 (+ b ?x745)))
 (let ((?x260 (* (- 1) r)))
 (let ((?x717 (+ s ?x260)))
 (let ((?x389 (* ?x717 ?x717 ?x717 ?x432 ?x432 ?x432 ?x439 ?x439 ?x439 r r a p p)))
 (let (($x328 (or (not (= (* (+ (* r a p) ?x389) ?x385) 0)) (not (= (* (+ (* ?x305 ?x564 ?x885) ?x528) ?x661) 0)))))
 (let ((?x73 (* b00 p00 s)))
 (let ((?x604 (+ (* q00 r00 b) ?x73 (* (- 1) (* b00 r00 q)) (* (- 1) (* p00 s00 b)) (* a00 s00 q) (* (- 1) (* a00 q00 s)))))
 (let (($x141 (= ?x604 0)))
 (let ((?x888 (* a00 s00 p)))
 (let ((?x859 (* q00 r00 a)))
 (let ((?x65 (* b00 p00 r)))
 (let ((?x1154 (+ (* (- 1) (* b00 r00 p)) (* (- 1) (* p00 s00 a)) ?x65 ?x859 ?x888 (* (- 1) (* a00 q00 r)))))
 (let ((?x59 (* b p)))
 (let ((?x55 (* a00 q00)))
 (let (($x864 (= (+ (* (- 1) (* q a)) ?x55 (* (- 1) (* b00 p00)) ?x59) 0)))
 (let ((?x51 (* b00 r00)))
 (let ((?x230 (* s a)))
 (let (($x892 (= (+ (* (- 1) (* r b)) (* (- 1) (* a00 s00)) ?x230 ?x51) 0)))
 (let (($x258 (and (= (+ (* (- 1) (* r q)) (* s p) ?x139 ?x41) 0) $x892 $x864 (= ?x1154 0) $x141 $x328)))
 (let ((?x100 (- s r)))
 (let ((?x98 (- q p)))
 (let ((?x106 (- b a)))
 (let ((?x107 (* a ?x106 ?x106 ?x106 p p ?x98 ?x98 ?x98 r r ?x100 ?x100 ?x100)))
 (let ((?x109 (* (+ (- (+ (* (- 1) ?x98 r) (* p ?x100)) ?x37) ?x41) (+ (* a p r) ?x107))))
 (let ((?x84 (- r s)))
 (let ((?x86 (- p q)))
 (let ((?x91 (- a b)))
 (let ((?x93 (* ?x91 b b b ?x86 ?x86 q q q ?x84 ?x84 s s s)))
 (let ((?x95 (* (+ (- (+ (* (- 1) q ?x84) (* ?x86 s)) ?x37) ?x41) (+ (* ?x91 ?x86 ?x84) ?x93))))
 (let ((?x81 (* a00 q00 s)))
 (let ((?x76 (* b p00 s00)))
 (let ((?x80 (+ (- (- (+ (* b q00 r00) ?x73) (* b00 q r00)) ?x76) (* a00 q s00))))
 (let ((?x69 (* a00 q00 r)))
 (let ((?x66 (* a q00 r00)))
 (let ((?x68 (+ (- (* (- 1) b00 p r00) (* a p00 s00)) ?x65 ?x66 (* a00 p s00))))
 (let (($x61 (= (+ (- (+ (* (- 1) a q) ?x55) (* b00 p00)) ?x59) 0)))
 (let (($x53 (= (+ (- (* (- 1) b r) (* a00 s00)) (* a s) ?x51) 0)))
 (let (($x44 (= (+ (- (+ (* (- 1) q r) (* p s)) ?x37) ?x41) 0)))
 (let (($x113 (and $x44 $x53 $x61 (= (- ?x68 ?x69) 0) (= (- ?x80 ?x81) 0) (or (not (= ?x95 0)) (not (= ?x109 0))))))
 (rewrite (= $x113 $x258)))))))))))))))))))))))))))))))))))))))))))))))))))))))
 ))
 (let ((@x115 (asserted $x114)))
 (let ((@x1152 (mp (mp @x115 (quant-intro (proof-bind ?x986) (= $x114 $x1142)) $x1142) (rewrite (= $x1142 $x1142)) $x1142)))
 (let ((@x479 (mp (mp @x1152 (quant-intro (proof-bind ?x190) (= $x1142 $x433)) $x433) (quant-intro (proof-bind ?x473) (= $x433 $x380)) $x380)))
 (let ((@x1120 (mp (mp~ @x479 (sk (~ $x380 $x599)) $x599) (rewrite (= $x599 $x708)) $x708)))
 (let ((@x1116 (and-elim @x1120 $x568)))
 (let ((@x454 (unit-resolution ((_ th-lemma arith triangle-eq) (or (not $x568) $x497)) @x1116 $x497)))
 (let (($x492 (<= ?x569 0)))
 (let ((@x285 (unit-resolution ((_ th-lemma arith triangle-eq) (or (not $x568) $x492)) @x1116 $x492)))
 (let (($x656 (not (<= ?x184 0))))
 (let (($x573 (>= ?x523 0)))
 (let (($x634 (<= ?x523 0)))
 (let ((@x281 (unit-resolution ((_ th-lemma arith triangle-eq) (or $x147 (not $x634) (not $x573))) (lemma ((_ th-lemma arith) (hypothesis (not $x634)) @x454 @x285 false) $x634) (lemma ((_ th-lemma arith) (hypothesis (not $x573)) @x454 @x285 false) $x573) $x147)))
 (let (($x412 (>= ?x184 0)))
 (let ((@x168 (unit-resolution ((_ th-lemma arith triangle-eq) (or $x522 $x656 (not $x412))) (lemma ((_ th-lemma arith farkas 1 1 1) (hypothesis (not $x412)) @x285 @x454 false) $x412) (unit-resolution (and-elim @x1120 $x679) @x281 $x164) $x656)))
 ((_ th-lemma arith farkas 1 1 1) @x168 @x285 @x454 false))))))))))))))))))))))))))))))))))))))))))))))))))))))))))))))))))))))))))))))))))))))))))))))))))))))))))))))

(:added-eqs                 8
 :arith-assert-diseq        3
 :arith-assert-lower        15
 :arith-assert-upper        15
 :arith-conflicts           4
 :arith-eq-adapter          9
 :arith-fixed-eqs           4
 :arith-grobner             4
 :arith-max-min             606
 :arith-nonlinear-horner    40
 :arith-num-rows            11
 :arith-pivots              6
 :arith-pseudo-nonlinear    2
 :arith-row-summations      1
 :arith-tableau-max-columns 88
 :arith-tableau-max-rows    11
 :conflicts                 4
 :decisions                 7
 :del-clause                19
 :final-checks              4
 :max-memory                15.56
 :memory                    3.25
 :mk-bool-var               33
 :mk-clause                 32
 :num-allocs                191467907538.00
 :num-checks                1
 :propagations              19
 :rlimit-count              6503561
 :time                      6.81
 :total-time                6.82)
